Minimize
 + xt_4 + yt_4 + xt_5 + yt_5 -  w_r_6 + xt_6 + yt_6 -  w_r_7 -  w_l_7 + xt_7 + yt_7 + xt_21 + yt_21 -  w_r_22 + xt_22 + yt_22 -  w_l_23 + xt_23 + yt_23 -  w_l_24 + xt_24 + yt_24 + xt_36 + yt_36 + xt_37 + yt_37 -  w_r_38 + xt_38 + yt_38 -  w_l_39 + xt_39 + yt_39 + xt_52 + yt_52 + xt_53 + yt_53 + xt_54 + yt_54 -  w_l_55 + xt_55 + yt_55 + xt_65 + yt_65 + xt_66 + yt_66 + xt_67 + yt_67 -  w_r_68 + xt_68 + yt_68 + xt_73 + yt_73 + xt_74 + yt_74 + xt_75 + yt_75 + xt_76 + yt_76 + xt_94 + yt_94 -  w_r_95 -  w_l_95 + xt_95 + yt_95 + xt_96 + yt_96 + xt_99 + yt_99 + xt_100 + yt_100 + xt_101 + yt_101 + xt_102 + yt_102 + xt_103 + yt_103 + xt_126 + yt_126 + xt_127 + yt_127 -  w_l_128 + xt_128 + yt_128 + xt_129 + yt_129 + xt_130 + yt_130 + xt_139 + yt_139 + xt_140 + yt_140 + xt_141 + yt_141 -  w_l_142 + xt_142 + yt_142 + xt_152 + yt_152 + xt_153 + yt_153 + xt_154 + yt_154 -  w_l_155 + xt_155 + yt_155 + xt_160 + yt_160 + xt_161 + yt_161 -  w_r_180 + xt_180 + yt_180 -  w_r_181 + xt_181 + yt_181 + xt_185 + yt_185 + xt_186 + yt_186 + xt_187 + yt_187 -  w_r_188 + xt_188 + yt_188 -  w_l_189 + xt_189 + yt_189 + xt_197 + yt_197 -  w_l_198 + xt_198 + yt_198 -  w_l_199 + xt_199 + yt_199 + xt_200 + yt_200 + xt_210 + yt_210 + xt_211 + yt_211 + xt_212 + yt_212 -  w_r_213 + xt_213 + yt_213 -  w_r_220 + xt_220 + yt_220 + xt_221 + yt_221 + xt_222 + yt_222 -  w_l_223 + xt_223 + yt_223 + xt_236 + yt_236 -  w_l_237 + xt_237 + yt_237 + xt_238 + yt_238 -  w_r_239 + xt_239 + yt_239 + xt_248 + yt_248 + xt_249 + yt_249 + xt_250 + yt_250 + xt_251 + yt_251 + xt_252 + yt_252 -  w_r_253 + xt_253 + yt_253 + xt_263 + yt_263 + xt_264 + yt_264 -  w_l_265 + xt_265 + yt_265 + xt_266 + yt_266 + xt_267 + yt_267 + xt_284 + yt_284 -  w_r_285 + xt_285 + yt_285 + xt_286 + yt_286 -  w_r_287 + xt_287 + yt_287 + xt_301 + yt_301 + xt_302 + yt_302 -  w_l_303 + xt_303 + yt_303 + xt_304 + yt_304 + xt_305 + yt_305 + xt_306 + yt_306 + xt_310 + yt_310 + xt_311 + yt_311 + xt_312 + yt_312 + xt_313 + yt_313 -  w_r_314 + xt_314 + yt_314 + xt_327 + yt_327 + xt_328 + yt_328 -  w_l_329 + xt_329 + yt_329 + xt_330 + yt_330 + xt_343 + yt_343 -  w_r_344 -  w_l_344 + xt_344 + yt_344 + xt_345 + yt_345 -  w_l_346 + xt_346 + yt_346 -  w_l_347 + xt_347 + yt_347 + xt_353 + yt_353 + xt_354 + yt_354 + xt_355 + yt_355 -  w_r_356 + xt_356 + yt_356 + xt_364 + yt_364 + xt_365 + yt_365 + xt_366 + yt_366 + xt_367 + yt_367 -  w_r_368 + xt_368 + yt_368

Subject To
1 y_4 + -1 x_4  >= -28.0386
x_4 - xt_4 <= 161.485
x_4 + xt_4 >= 161.485
y_4 - yt_4 <= 133.65
y_4 + yt_4 >= 133.65
x_5 - xt_5 <= 165.735
x_5 + xt_5 >= 165.735
y_5 - yt_5 <= 133.65
y_5 + yt_5 >= 133.65
1 y_6 + 1 x_6  + w_r_6 <= 308.201
x_6 - xt_6 <= 171.785
x_6 + xt_6 >= 171.785
y_6 - yt_6 <= 135.775
y_6 + yt_6 >= 135.775
1 y_7 + 1 x_7  + w_r_7 <= 312.651
1 y_7 + 1 x_7  + w_r_7 <= 312.528
1 y_7 + 1 x_7  + w_r_7 <= 312.528
1 y_7 + 1 x_7  + w_r_7 <= 312.528
1 y_7 + 1 x_7  + w_r_7 <= 312.528
1 y_7 + 1 x_7  - w_l_7 >= 311.806
1 y_7 + 1 x_7  - w_l_7 >= 311.943
1 y_7 + -1 x_7  <= -35.7636
1 y_7 + -1 x_7  >= -36.3221
x_7 - xt_7 <= 174.11
x_7 + xt_7 >= 174.11
y_7 - yt_7 <= 138.1
y_7 + yt_7 >= 138.1
1 y_21 + -1 x_21  >= -23.9386
1 y_21 + -1 x_21  >= -28.0386
1 y_21 + -1 x_21  >= -23.2886
x_21 - xt_21 <= 161.485
x_21 + xt_21 >= 161.485
y_21 - yt_21 <= 138.4
y_21 + yt_21 >= 138.4
1 y_22 + -0 x_22  + w_r_22 <= 138.546
1 y_22 + 0 x_22  + w_r_22 <= 138.52
x_22 - xt_22 <= 168.11
x_22 + xt_22 >= 168.11
y_22 - yt_22 <= 138.4
y_22 + yt_22 >= 138.4
1 y_23 + 1 x_23  - w_l_23 >= 312.469
x_23 - xt_23 <= 174.56
x_23 + xt_23 >= 174.56
y_23 - yt_23 <= 138.55
y_23 + yt_23 >= 138.55
1 y_24 + 1 x_24  - w_l_24 >= 313.369
1 y_24 + 1 x_24  - w_l_24 >= 313.544
1 y_24 + -1 x_24  >= -36.3218
1 y_24 + -1 x_24  <= -35.6564
1 y_24 + -1 x_24  <= -35.7636
x_24 - xt_24 <= 174.91
x_24 + xt_24 >= 174.91
y_24 - yt_24 <= 138.9
y_24 + yt_24 >= 138.9
1 y_36 + -1 x_36  >= -28.0386
x_36 - xt_36 <= 161.485
x_36 + xt_36 >= 161.485
y_36 - yt_36 <= 134.6
y_36 + yt_36 >= 134.6
x_37 - xt_37 <= 163.81
x_37 + xt_37 >= 163.81
y_37 - yt_37 <= 134.6
y_37 + yt_37 >= 134.6
1 y_38 + 0.999999 x_38  <= 304.151
1 y_38 + 1 x_38  + w_r_38 <= 308.101
x_38 - xt_38 <= 167.46
x_38 + xt_38 >= 167.46
y_38 - yt_38 <= 136.25
y_38 + yt_38 >= 136.25
1 y_39 + 1 x_39  - w_l_39 >= 307.144
1 y_39 + -1 x_39  <= -30.9638
1 y_39 + -1 x_39  >= -31.522
x_39 - xt_39 <= 169.31
x_39 + xt_39 >= 169.31
y_39 - yt_39 <= 138.1
y_39 + yt_39 >= 138.1
1 y_52 + -1 x_52  >= -28.0386
x_52 - xt_52 <= 161.485
x_52 + xt_52 >= 161.485
y_52 - yt_52 <= 135.55
y_52 + yt_52 >= 135.55
x_53 - xt_53 <= 165.36
x_53 + xt_53 >= 165.36
y_53 - yt_53 <= 135.55
y_53 + yt_53 >= 135.55
1 y_54 + 1 x_54  <= 307.101
x_54 - xt_54 <= 169.885
x_54 + xt_54 >= 169.885
y_54 - yt_54 <= 136.525
y_54 + yt_54 >= 136.525
0 y_55 + 1 x_55  <= 172.305
0 y_55 + 1 x_55  <= 172.245
0 y_55 + 1 x_55  <= 172.245
0 y_55 + 1 x_55  <= 172.245
0 y_55 + 1 x_55  <= 172.245
0 y_55 + 1 x_55  >= 172.026
1 y_55 + 0 x_55  - w_l_55 >= 137.38
1 y_55 + 0 x_55  - w_l_55 >= 137.441
1 y_55 + 0 x_55  - w_l_55 >= 137.441
x_55 - xt_55 <= 172.185
x_55 + xt_55 >= 172.185
y_55 - yt_55 <= 137.5
y_55 + yt_55 >= 137.5
x_65 - xt_65 <= 161.485
x_65 + xt_65 >= 161.485
y_65 - yt_65 <= 141.25
y_65 + yt_65 >= 141.25
x_66 - xt_66 <= 162.585
x_66 + xt_66 >= 162.585
y_66 - yt_66 <= 141.25
y_66 + yt_66 >= 141.25
x_67 - xt_67 <= 166.635
x_67 + xt_67 >= 166.635
y_67 - yt_67 <= 137.975
y_67 + yt_67 >= 137.975
1 y_68 + -1 x_68  + w_r_68 <= -35.3635
1 y_68 + 1 x_68  <= 304.902
1 y_68 + 1 x_68  >= 304.344
x_68 - xt_68 <= 170.11
x_68 + xt_68 >= 170.11
y_68 - yt_68 <= 134.5
y_68 + yt_68 >= 134.5
1 y_73 + -1 x_73  >= -23.9386
1 y_73 + -1 x_73  >= -23.2886
x_73 - xt_73 <= 161.485
x_73 + xt_73 >= 161.485
y_73 - yt_73 <= 140.3
y_73 + yt_73 >= 140.3
x_74 - xt_74 <= 164.66
x_74 + xt_74 >= 164.66
y_74 - yt_74 <= 140.3
y_74 + yt_74 >= 140.3
1 y_75 + 1 x_75  >= 307.369
1 y_75 + 1 x_75  >= 307.492
1 y_75 + 1 x_75  >= 307.492
1 y_75 + 1 x_75  >= 307.492
1 y_75 + 1 x_75  >= 307.492
1 y_75 + 1 x_75  >= 307.492
1 y_75 + 1 x_75  <= 307.878
1 y_75 + 1 x_75  <= 307.878
1 y_75 + 1 x_75  >= 306.842
1 y_75 + 1 x_75  >= 306.842
1 y_75 + 1 x_75  >= 306.842
1 y_75 + 1 x_75  >= 306.842
1 y_75 + 1 x_75  <= 309.478
1 y_75 + 1 x_75  <= 309.478
1 y_75 + 1 x_75  <= 309.478
1 y_75 + 1 x_75  <= 309.478
1 y_75 + 1 x_75  <= 311.401
x_75 - xt_75 <= 169.185
x_75 + xt_75 >= 169.185
y_75 - yt_75 <= 138.625
y_75 + yt_75 >= 138.625
1 y_76 + -0 x_76  <= 135.808
1 y_76 + -0 x_76  <= 135.808
1 y_76 + -0 x_76  <= 135.77
1 y_76 + -0 x_76  <= 135.77
1 y_76 + 1 x_76  >= 305.144
1 y_76 + 1 x_76  <= 309.051
1 y_76 + 1 x_76  <= 308.928
1 y_76 + 1 x_76  <= 308.928
1 y_76 + 1 x_76  <= 308.902
1 y_76 + 1 x_76  <= 308.102
1 y_76 + 1 x_76  >= 305.944
1 y_76 + 1 x_76  <= 309.702
1 y_76 + 1 x_76  >= 307.544
1 y_76 + 1 x_76  >= 307.356
1 y_76 + 1 x_76  >= 307.269
1 y_76 + 1 x_76  >= 307.442
1 y_76 + 1 x_76  >= 307.442
1 y_76 + 1 x_76  >= 307.442
1 y_76 + 1 x_76  >= 306.744
x_76 - xt_76 <= 172.185
x_76 + xt_76 >= 172.185
y_76 - yt_76 <= 135.625
y_76 + yt_76 >= 135.625
1 y_94 + -1 x_94  <= -23.8064
1 y_94 + -1 x_94  <= -23.8915
1 y_94 + -1 x_94  <= -23.8915
1 y_94 + -1 x_94  <= -23.8915
1 y_94 + -1 x_94  <= -23.8915
1 y_94 + -1 x_94  <= -23.5739
1 y_94 + -1 x_94  <= -21.9064
1 y_94 + -1 x_94  <= -21.9915
1 y_94 + -1 x_94  <= -21.9915
1 y_94 + -1 x_94  <= -21.9915
1 y_94 + -1 x_94  <= -21.9915
1 y_94 + -1 x_94  <= -21.9915
1 y_94 + -1 x_94  <= -21.6689
1 y_94 + -1 x_94  <= -22.8564
1 y_94 + -1 x_94  <= -22.9415
1 y_94 + -1 x_94  <= -22.9415
1 y_94 + -1 x_94  <= -22.9415
1 y_94 + -1 x_94  <= -22.6214
1 y_94 + -1 x_94  >= -28.4008
1 y_94 + -1 x_94  <= -24.4064
1 y_94 + -1 x_94  <= -24.3692
1 y_94 + -0 x_94  <= 138.42
1 y_94 + -1 x_94  <= -24.5264
x_94 - xt_94 <= 163.06
x_94 + xt_94 >= 163.06
y_94 - yt_94 <= 138.4
y_94 + yt_94 >= 138.4
1 y_95 + 0 x_95  - w_l_95 >= 140.258
1 y_95 + 0 x_95  - w_l_95 >= 140.258
1 y_95 + -1 x_95  <= -28.0814
1 y_95 + -0 x_95  + w_r_95 <= 140.346
1 y_95 + 0 x_95  - w_l_95 >= 140.295
x_95 - xt_95 <= 168.635
x_95 + xt_95 >= 168.635
y_95 - yt_95 <= 140.3
y_95 + yt_95 >= 140.3
1 y_96 + 1 x_96  <= 312.902
1 y_96 + -0 x_96  <= 139.72
1 y_96 + 1 x_96  <= 313.701
x_96 - xt_96 <= 172.91
x_96 + xt_96 >= 172.91
y_96 - yt_96 <= 139.7
y_96 + yt_96 >= 139.7
x_99 - xt_99 <= 161.31
x_99 + xt_99 >= 161.31
y_99 - yt_99 <= 142.25
y_99 + yt_99 >= 142.25
1 y_100 + 1 x_100  >= 303.266
x_100 - xt_100 <= 161.635
x_100 + xt_100 >= 161.635
y_100 - yt_100 <= 142.075
y_100 + yt_100 >= 142.075
x_101 - xt_101 <= 164.66
x_101 + xt_101 >= 164.66
y_101 - yt_101 <= 141.9
y_101 + yt_101 >= 141.9
1 y_102 + 1 x_102  >= 308.719
x_102 - xt_102 <= 169.91
x_102 + xt_102 >= 169.91
y_102 - yt_102 <= 139.5
y_102 + yt_102 >= 139.5
1 y_103 + -0 x_103  <= 136.62
1 y_103 + 1 x_103  <= 310.502
1 y_103 + 1 x_103  >= 308.169
1 y_103 + 1 x_103  <= 309.702
x_103 - xt_103 <= 172.91
x_103 + xt_103 >= 172.91
y_103 - yt_103 <= 136.5
y_103 + yt_103 >= 136.5
0 y_126 + 1 x_126  <= 156.203
1 y_126 + -1 x_126  >= -32.3061
x_126 - xt_126 <= 156.16
x_126 + xt_126 >= 156.16
y_126 - yt_126 <= 124
y_126 + yt_126 >= 124
1 y_127 + -1 x_127  >= -33.7136
x_127 - xt_127 <= 158.26
x_127 + xt_127 >= 158.26
y_127 - yt_127 <= 126.1
y_127 + yt_127 >= 126.1
1 y_128 + -1 x_128  - w_l_128 >= -38.5636
1 y_128 + -1 x_128  - w_l_128 >= -36.2136
x_128 - xt_128 <= 162.66
x_128 + xt_128 >= 162.66
y_128 - yt_128 <= 127.9
y_128 + yt_128 >= 127.9
1 y_129 + -1 x_129  >= -41.2008
1 y_129 + -1 x_129  >= -38.8508
x_129 - xt_129 <= 166.985
x_129 + xt_129 >= 166.985
y_129 - yt_129 <= 129.625
y_129 + yt_129 >= 129.625
x_130 - xt_130 <= 168.71
x_130 + xt_130 >= 168.71
y_130 - yt_130 <= 131.625
y_130 + yt_130 >= 131.625
x_139 - xt_139 <= 161.485
x_139 + xt_139 >= 161.485
y_139 - yt_139 <= 124.15
y_139 + yt_139 >= 124.15
x_140 - xt_140 <= 163.385
x_140 + xt_140 >= 163.385
y_140 - yt_140 <= 124.15
y_140 + yt_140 >= 124.15
1 y_141 + -1 x_141  <= -40.4064
1 y_141 + -1 x_141  <= -40.3692
1 y_141 + -1 x_141  <= -38.3064
1 y_141 + -1 x_141  <= -38.7692
x_141 - xt_141 <= 169.435
x_141 + xt_141 >= 169.435
y_141 - yt_141 <= 128.625
y_141 + yt_141 >= 128.625
0 y_142 + 1 x_142  <= 174.203
1 y_142 + -1 x_142  <= -40.5637
1 y_142 + 1 x_142  - w_l_142 >= 307.144
0 y_142 + 1 x_142  <= 174.18
1 y_142 + -1 x_142  >= -41.2508
1 y_142 + -1 x_142  >= -41.0785
1 y_142 + -1 x_142  >= -41.0785
1 y_142 + -1 x_142  >= -41.0785
1 y_142 + -1 x_142  >= -41.0785
1 y_142 + -1 x_142  >= -41.0785
1 y_142 + -1 x_142  >= -41.1219
x_142 - xt_142 <= 174.11
x_142 + xt_142 >= 174.11
y_142 - yt_142 <= 133.3
y_142 + yt_142 >= 133.3
x_152 - xt_152 <= 161.485
x_152 + xt_152 >= 161.485
y_152 - yt_152 <= 129.85
y_152 + yt_152 >= 129.85
x_153 - xt_153 <= 167.035
x_153 + xt_153 >= 167.035
y_153 - yt_153 <= 129.85
y_153 + yt_153 >= 129.85
x_154 - xt_154 <= 173.485
x_154 + xt_154 >= 173.485
y_154 - yt_154 <= 131.075
y_154 + yt_154 >= 131.075
1 y_155 + 0 x_155  <= 132.593
1 y_155 + 0 x_155  >= 132.38
1 y_155 + -1 x_155  >= -42.6285
1 y_155 + -1 x_155  >= -42.6285
1 y_155 + 1 x_155  - w_l_155 >= 307.144
1 y_155 + -0 x_155  <= 132.57
1 y_155 + -1 x_155  <= -41.9692
1 y_155 + -0 x_155  <= 132.533
1 y_155 + -0 x_155  <= 132.533
1 y_155 + -0 x_155  <= 132.533
1 y_155 + -0 x_155  <= 132.533
1 y_155 + -0 x_155  <= 132.533
1 y_155 + -1 x_155  <= -42.1636
x_155 - xt_155 <= 174.91
x_155 + xt_155 >= 174.91
y_155 - yt_155 <= 132.5
y_155 + yt_155 >= 132.5
x_160 - xt_160 <= 169.51
x_160 + xt_160 >= 169.51
y_160 - yt_160 <= 135.875
y_160 + yt_160 >= 135.875
0 y_161 + 1 x_161  <= 174.405
1 y_161 + -1 x_161  >= -35.4663
1 y_161 + -1 x_161  >= -35.4663
1 y_161 + -1 x_161  >= -35.4663
1 y_161 + -1 x_161  >= -35.4663
x_161 - xt_161 <= 174.335
x_161 + xt_161 >= 174.335
y_161 - yt_161 <= 139.1
y_161 + yt_161 >= 139.1
1 y_180 + 0 x_180  + w_r_180 <= 127.97
1 y_180 + -0 x_180  + w_r_180 <= 127.996
1 y_180 + 0 x_180  + w_r_180 <= 127.97
x_180 - xt_180 <= 166.56
x_180 + xt_180 >= 166.56
y_180 - yt_180 <= 127.95
y_180 + yt_180 >= 127.95
1 y_181 + 1 x_181  + w_r_181 <= 301.901
1 y_181 + 1 x_181  + w_r_181 <= 301.778
1 y_181 + 1 x_181  + w_r_181 <= 301.778
1 y_181 + 1 x_181  + w_r_181 <= 301.778
1 y_181 + 1 x_181  + w_r_181 <= 301.778
1 y_181 + -1 x_181  <= -41.9692
1 y_181 + -1 x_181  >= -44.2702
x_181 - xt_181 <= 172.735
x_181 + xt_181 >= 172.735
y_181 - yt_181 <= 128.725
y_181 + yt_181 >= 128.725
x_185 - xt_185 <= 161.485
x_185 + xt_185 >= 161.485
y_185 - yt_185 <= 123.2
y_185 + yt_185 >= 123.2
x_186 - xt_186 <= 163.285
x_186 + xt_186 >= 163.285
y_186 - yt_186 <= 123.2
y_186 + yt_186 >= 123.2
1 y_187 + -1 x_187  <= -37.7564
1 y_187 + -0.999999 x_187  <= -37.7191
1 y_187 + -1 x_187  <= -39.5692
x_187 - xt_187 <= 167.71
x_187 + xt_187 >= 167.71
y_187 - yt_187 <= 126.15
y_187 + yt_187 >= 126.15
1 y_188 + -1 x_188  >= -41.8386
0 y_188 + 1 x_188  + w_r_188 <= 170.806
1 y_188 + 1 x_188  <= 300.089
1 y_188 + 1 x_188  >= 299.658
x_188 - xt_188 <= 170.66
x_188 + xt_188 >= 170.66
y_188 - yt_188 <= 129.125
y_188 + yt_188 >= 129.125
1 y_189 + -1 x_189  - w_l_189 >= -41.5508
0 y_189 + 1 x_189  <= 170.605
1 y_189 + 1 x_189  <= 300.151
1 y_189 + 1 x_189  >= 299.595
x_189 - xt_189 <= 170.485
x_189 + xt_189 >= 170.485
y_189 - yt_189 <= 129.325
y_189 + yt_189 >= 129.325
x_197 - xt_197 <= 161.485
x_197 + xt_197 >= 161.485
y_197 - yt_197 <= 126.05
y_197 + yt_197 >= 126.05
1 y_198 + -1 x_198  - w_l_198 >= -38.2886
x_198 - xt_198 <= 163.935
x_198 + xt_198 >= 163.935
y_198 - yt_198 <= 126.05
y_198 + yt_198 >= 126.05
1 y_199 + 1 x_199  - w_l_199 >= 298.344
1 y_199 + -1 x_199  >= -40.3218
x_199 - xt_199 <= 169.31
x_199 + xt_199 >= 169.31
y_199 - yt_199 <= 129.3
y_199 + yt_199 >= 129.3
1 y_200 + -1 x_200  >= -40.4508
x_200 - xt_200 <= 167.585
x_200 + xt_200 >= 167.585
y_200 - yt_200 <= 127.575
y_200 + yt_200 >= 127.575
1 y_210 + -1 x_210  >= -34.6636
0 y_210 + 1 x_210  <= 158.493
0 y_210 + 1 x_210  <= 158.493
0 y_210 + 1 x_210  <= 158.493
0 y_210 + 1 x_210  <= 158.493
1 y_210 + -1 x_210  >= -34.2111
1 y_210 + -1 x_210  <= -33.4692
1 y_210 + -1 x_210  <= -33.5915
1 y_210 + -1 x_210  <= -33.5915
1 y_210 + -1 x_210  <= -33.5915
1 y_210 + -1 x_210  <= -33.5915
x_210 - xt_210 <= 158.31
x_210 + xt_210 >= 158.31
y_210 - yt_210 <= 124.2
y_210 + yt_210 >= 124.2
1 y_211 + -1 x_211  <= -35.1064
x_211 - xt_211 <= 161.36
x_211 + xt_211 >= 161.36
y_211 - yt_211 <= 124.7
y_211 + yt_211 >= 124.7
1 y_212 + -1 x_212  <= -37.7564
1 y_212 + -0.999999 x_212  <= -37.7191
1 y_212 + -1 x_212  >= -41.2008
x_212 - xt_212 <= 166.91
x_212 + xt_212 >= 166.91
y_212 - yt_212 <= 127.7
y_212 + yt_212 >= 127.7
1 y_213 + -1 x_213  + w_r_213 <= -39.3635
1 y_213 + 1 x_213  >= 300.344
1 y_213 + 0 x_213  <= 130.593
1 y_213 + 1 x_213  <= 300.902
x_213 - xt_213 <= 170.11
x_213 + xt_213 >= 170.11
y_213 - yt_213 <= 130.5
y_213 + yt_213 >= 130.5
1 y_220 + -1 x_220  + w_r_220 <= -34.8064
x_220 - xt_220 <= 159.06
x_220 + xt_220 >= 159.06
y_220 - yt_220 <= 123.7
y_220 + yt_220 >= 123.7
x_221 - xt_221 <= 163.535
x_221 + xt_221 >= 163.535
y_221 - yt_221 <= 123.7
y_221 + yt_221 >= 123.7
1 y_222 + -1 x_222  <= -37.9692
x_222 - xt_222 <= 170.81
x_222 + xt_222 >= 170.81
y_222 - yt_222 <= 126.8
y_222 + yt_222 >= 126.8
1 y_223 + 1 x_223  - w_l_223 >= 303.769
1 y_223 + 1 x_223  - w_l_223 >= 303.944
1 y_223 + -1 x_223  >= -44.3221
1 y_223 + -1 x_223  <= -43.7636
1 y_223 + -1 x_223  <= -41.9692
x_223 - xt_223 <= 174.11
x_223 + xt_223 >= 174.11
y_223 - yt_223 <= 130.1
y_223 + yt_223 >= 130.1
x_236 - xt_236 <= 161.485
x_236 + xt_236 >= 161.485
y_236 - yt_236 <= 131.75
y_236 + yt_236 >= 131.75
1 y_237 + -1 x_237  - w_l_237 >= -36.4886
x_237 - xt_237 <= 165.735
x_237 + xt_237 >= 165.735
y_237 - yt_237 <= 131.75
y_237 + yt_237 >= 131.75
1 y_238 + -1 x_238  >= -40.2008
x_238 - xt_238 <= 169.785
x_238 + xt_238 >= 169.785
y_238 - yt_238 <= 131.625
y_238 + yt_238 >= 131.625
1 y_239 + -1 x_239  + w_r_239 <= -38.5637
1 y_239 + 1 x_239  >= 301.144
1 y_239 + 1 x_239  >= 300.969
1 y_239 + 1 x_239  >= 301.092
1 y_239 + 1 x_239  >= 301.092
1 y_239 + 0 x_239  <= 131.393
1 y_239 + 1 x_239  <= 301.702
x_239 - xt_239 <= 170.11
x_239 + xt_239 >= 170.11
y_239 - yt_239 <= 131.3
y_239 + yt_239 >= 131.3
1 y_248 + -1 x_248  >= -23.9386
1 y_248 + -1 x_248  >= -23.2886
x_248 - xt_248 <= 161.485
x_248 + xt_248 >= 161.485
y_248 - yt_248 <= 139.35
y_248 + yt_248 >= 139.35
x_249 - xt_249 <= 162.735
x_249 + xt_249 >= 162.735
y_249 - yt_249 <= 138.425
y_249 + yt_249 >= 138.425
x_250 - xt_250 <= 166.56
x_250 + xt_250 >= 166.56
y_250 - yt_250 <= 137.5
y_250 + yt_250 >= 137.5
x_251 - xt_251 <= 170.06
x_251 + xt_251 >= 170.06
y_251 - yt_251 <= 136.9
y_251 + yt_251 >= 136.9
1 y_252 + 1 x_252  <= 307.389
1 y_252 + -0 x_252  <= 136.297
x_252 - xt_252 <= 170.66
x_252 + xt_252 >= 170.66
y_252 - yt_252 <= 136.275
y_252 + yt_252 >= 136.275
1 y_253 + 1 x_253  + w_r_253 <= 307.101
1 y_253 + -0 x_253  <= 136.12
x_253 - xt_253 <= 170.485
x_253 + xt_253 >= 170.485
y_253 - yt_253 <= 136.075
y_253 + yt_253 >= 136.075
x_263 - xt_263 <= 161.31
x_263 + xt_263 >= 161.31
y_263 - yt_263 <= 132.7
y_263 + yt_263 >= 132.7
1 y_264 + -1 x_264  <= -28.5564
1 y_264 + -1 x_264  <= -28.6415
1 y_264 + -1 x_264  <= -28.6415
1 y_264 + -1 x_264  <= -28.6415
1 y_264 + -1 x_264  <= -28.6415
1 y_264 + -1 x_264  <= -28.3364
1 y_264 + -1 x_264  <= -23.8064
1 y_264 + -1 x_264  <= -23.8915
1 y_264 + -1 x_264  <= -23.8915
1 y_264 + -1 x_264  <= -23.8915
1 y_264 + -1 x_264  <= -23.8915
1 y_264 + -1 x_264  <= -23.5739
1 y_264 + -1 x_264  <= -27.6064
1 y_264 + -1 x_264  <= -27.6915
1 y_264 + -1 x_264  <= -27.6915
1 y_264 + -1 x_264  <= -27.6915
1 y_264 + -1 x_264  <= -27.6915
1 y_264 + -1 x_264  <= -27.6915
1 y_264 + -1 x_264  <= -27.3839
1 y_264 + -1 x_264  <= -26.6564
1 y_264 + -1 x_264  <= -26.7415
1 y_264 + -1 x_264  <= -26.7415
1 y_264 + -1 x_264  <= -26.4314
1 y_264 + -1 x_264  <= -25.0192
1 y_264 + -1 x_264  <= -25.4789
1 y_264 + -0 x_264  <= 135.933
1 y_264 + -0 x_264  <= 135.933
1 y_264 + -0 x_264  <= 135.933
1 y_264 + -0 x_264  <= 135.849
1 y_264 + -1 x_264  <= -24.4064
1 y_264 + -1 x_264  <= -24.3692
1 y_264 + -1 x_264  <= -24.5264
x_264 - xt_264 <= 164.51
x_264 + xt_264 >= 164.51
y_264 - yt_264 <= 135.75
y_264 + yt_264 >= 135.75
1 y_265 + 0 x_265  - w_l_265 >= 138.654
x_265 - xt_265 <= 169.06
x_265 + xt_265 >= 169.06
y_265 - yt_265 <= 138.8
y_265 + yt_265 >= 138.8
1 y_266 + 0 x_266  >= 138.83
x_266 - xt_266 <= 170.71
x_266 + xt_266 >= 170.71
y_266 - yt_266 <= 138.95
y_266 + yt_266 >= 138.95
x_267 - xt_267 <= 170.585
x_267 + xt_267 >= 170.585
y_267 - yt_267 <= 139.1
y_267 + yt_267 >= 139.1
x_284 - xt_284 <= 161.485
x_284 + xt_284 >= 161.485
y_284 - yt_284 <= 127
y_284 + yt_284 >= 127
1 y_285 + -1 x_285  + w_r_285 <= -34.9064
x_285 - xt_285 <= 163.21
x_285 + xt_285 >= 163.21
y_285 - yt_285 <= 127
y_285 + yt_285 >= 127
1 y_286 + -1 x_286  >= -43.6508
1 y_286 + -1 x_286  <= -33.4692
1 y_286 + -0 x_286  <= 129.77
x_286 - xt_286 <= 167.26
x_286 + xt_286 >= 167.26
y_286 - yt_286 <= 129.65
y_286 + yt_286 >= 129.65
1 y_287 + 1 x_287  >= 301.944
1 y_287 + 1 x_287  >= 301.769
1 y_287 + 1 x_287  >= 301.892
1 y_287 + 1 x_287  >= 301.892
1 y_287 + 1 x_287  >= 301.892
1 y_287 + 1 x_287  <= 302.614
0 y_287 + 1 x_287  <= 170.293
0 y_287 + 1 x_287  <= 170.293
0 y_287 + 1 x_287  <= 170.293
0 y_287 + 1 x_287  <= 170.293
1 y_287 + 1 x_287  <= 302.502
1 y_287 + -1 x_287  + w_r_287 <= -37.7636
x_287 - xt_287 <= 170.11
x_287 + xt_287 >= 170.11
y_287 - yt_287 <= 132.1
y_287 + yt_287 >= 132.1
1 y_301 + -1 x_301  >= -24.1136
1 y_301 + -1 x_301  >= -28.2136
x_301 - xt_301 <= 161.31
x_301 + xt_301 >= 161.31
y_301 - yt_301 <= 137.45
y_301 + yt_301 >= 137.45
1 y_302 + -1 x_302  <= -23.8064
1 y_302 + -1 x_302  <= -23.8915
1 y_302 + -1 x_302  <= -23.8915
1 y_302 + -1 x_302  <= -23.8915
1 y_302 + -1 x_302  <= -23.8915
1 y_302 + -1 x_302  <= -23.5739
1 y_302 + -1 x_302  <= -21.9064
1 y_302 + -1 x_302  <= -21.9915
1 y_302 + -1 x_302  <= -21.9915
1 y_302 + -1 x_302  <= -21.9915
1 y_302 + -1 x_302  <= -21.9915
1 y_302 + -1 x_302  <= -21.9915
1 y_302 + -1 x_302  <= -21.6689
1 y_302 + -1 x_302  >= -24.3008
0 y_302 + 1 x_302  <= 163.105
1 y_302 + -1 x_302  <= -22.8564
1 y_302 + -1 x_302  <= -22.9415
1 y_302 + -1 x_302  <= -22.9415
1 y_302 + -1 x_302  <= -22.9415
1 y_302 + -1 x_302  <= -22.6214
1 y_302 + -1 x_302  >= -28.4008
x_302 - xt_302 <= 163.035
x_302 + xt_302 >= 163.035
y_302 - yt_302 <= 139.025
y_302 + yt_302 >= 139.025
1 y_303 + -0 x_303  - w_l_303 >= 140.58
1 y_303 + 0 x_303  - w_l_303 >= 140.554
1 y_303 + 0 x_303  - w_l_303 >= 140.58
x_303 - xt_303 <= 169.035
x_303 + xt_303 >= 169.035
y_303 - yt_303 <= 140.6
y_303 + yt_303 >= 140.6
1 y_304 + 1 x_304  >= 312.969
1 y_304 + 1 x_304  >= 313.944
x_304 - xt_304 <= 173.735
x_304 + xt_304 >= 173.735
y_304 - yt_304 <= 140.325
y_304 + yt_304 >= 140.325
0 y_305 + 1 x_305  >= 173.976
x_305 - xt_305 <= 174.085
x_305 + xt_305 >= 174.085
y_305 - yt_305 <= 140.05
y_305 + yt_305 >= 140.05
x_306 - xt_306 <= 174.235
x_306 + xt_306 >= 174.235
y_306 - yt_306 <= 139.975
y_306 + yt_306 >= 139.975
x_310 - xt_310 <= 161.485
x_310 + xt_310 >= 161.485
y_310 - yt_310 <= 143.2
y_310 + yt_310 >= 143.2
x_311 - xt_311 <= 165.185
x_311 + xt_311 >= 165.185
y_311 - yt_311 <= 143.2
y_311 + yt_311 >= 143.2
1 y_312 + 1 x_312  <= 311.328
1 y_312 + 1 x_312  <= 311.328
1 y_312 + 1 x_312  <= 311.328
1 y_312 + 1 x_312  <= 311.328
1 y_312 + 1 x_312  <= 312.928
1 y_312 + 1 x_312  <= 312.928
1 y_312 + 1 x_312  <= 312.928
1 y_312 + 1 x_312  <= 312.928
1 y_312 + 1 x_312  >= 307.369
1 y_312 + 1 x_312  >= 307.492
1 y_312 + 1 x_312  >= 307.492
1 y_312 + 1 x_312  >= 307.492
1 y_312 + 1 x_312  >= 307.492
1 y_312 + 1 x_312  >= 307.492
1 y_312 + 1 x_312  >= 308.842
1 y_312 + 1 x_312  >= 308.842
1 y_312 + 0.999999 x_312  >= 308.169
1 y_312 + 1 x_312  >= 308.292
1 y_312 + 1 x_312  >= 308.292
1 y_312 + 1 x_312  >= 308.292
1 y_312 + 1 x_312  >= 308.292
1 y_312 + 1 x_312  >= 308.292
1 y_312 + 1 x_312  >= 309.892
1 y_312 + 1 x_312  >= 309.892
1 y_312 + 1 x_312  >= 310.442
1 y_312 + 1 x_312  >= 310.442
1 y_312 + 1 x_312  >= 310.442
1 y_312 + 1 x_312  >= 310.442
x_312 - xt_312 <= 171.61
x_312 + xt_312 >= 171.61
y_312 - yt_312 <= 140.15
y_312 + yt_312 >= 140.15
1 y_313 + 1 x_313  <= 312.04
1 y_313 + -1 x_313  >= -37.8596
1 y_313 + -0 x_313  <= 137.097
x_313 - xt_313 <= 174.66
x_313 + xt_313 >= 174.66
y_313 - yt_313 <= 137.075
y_313 + yt_313 >= 137.075
1 y_314 + 1 x_314  + w_r_314 <= 311.752
0 y_314 + 1 x_314  <= 174.563
1 y_314 + -0 x_314  <= 136.92
x_314 - xt_314 <= 174.485
x_314 + xt_314 >= 174.485
y_314 - yt_314 <= 136.875
y_314 + yt_314 >= 136.875
1 y_327 + -1 x_327  <= -32.5192
1 y_327 + -1 x_327  <= -32.6415
1 y_327 + -1 x_327  <= -32.6415
1 y_327 + -1 x_327  >= -33.7508
1 y_327 + -1 x_327  >= -33.2586
x_327 - xt_327 <= 157.31
x_327 + xt_327 >= 157.31
y_327 - yt_327 <= 124.2
y_327 + yt_327 >= 124.2
1 y_328 + -1 x_328  >= -34.4136
1 y_328 + -1 x_328  >= -37.2508
x_328 - xt_328 <= 161.81
x_328 + xt_328 >= 161.81
y_328 - yt_328 <= 128.7
y_328 + yt_328 >= 128.7
1 y_329 + -0 x_329  - w_l_329 >= 132.58
x_329 - xt_329 <= 168.335
x_329 + xt_329 >= 168.335
y_329 - yt_329 <= 132.7
y_329 + yt_329 >= 132.7
1 y_330 + 1 x_330  >= 302.881
1 y_330 + 1 x_330  >= 303.004
1 y_330 + 1 x_330  >= 303.004
1 y_330 + 1 x_330  >= 303.004
1 y_330 + 1 x_330  >= 303.004
x_330 - xt_330 <= 170.585
x_330 + xt_330 >= 170.585
y_330 - yt_330 <= 132.7
y_330 + yt_330 >= 132.7
1 y_343 + 0 x_343  >= 128.555
1 y_343 + 1 x_343  >= 289.931
x_343 - xt_343 <= 161.485
x_343 + xt_343 >= 161.485
y_343 - yt_343 <= 128.575
y_343 + yt_343 >= 128.575
1 y_344 + -0 x_344  + w_r_344 <= 128.322
1 y_344 + -0 x_344  + w_r_344 <= 128.322
1 y_344 + 0 x_344  - w_l_344 >= 128.204
0 y_344 + 1 x_344  >= 166.009
1 y_344 + -0 x_344  + w_r_344 <= 128.285
x_344 - xt_344 <= 166.16
x_344 + xt_344 >= 166.16
y_344 - yt_344 <= 128.25
y_344 + yt_344 >= 128.25
1 y_345 + 0 x_345  >= 128.505
1 y_345 + -0 x_345  <= 128.545
1 y_345 + 0 x_345  <= 128.568
1 y_345 + -1 x_345  <= -42.0415
1 y_345 + -1 x_345  <= -42.0415
1 y_345 + -1 x_345  <= -42.2153
x_345 - xt_345 <= 170.785
x_345 + xt_345 >= 170.785
y_345 - yt_345 <= 128.525
y_345 + yt_345 >= 128.525
0 y_346 + 1 x_346  - w_l_346 >= 170.914
0 y_346 + 1 x_346  - w_l_346 >= 170.94
0 y_346 + 1 x_346  - w_l_346 >= 171.001
0 y_346 + 1 x_346  - w_l_346 >= 171.001
x_346 - xt_346 <= 171.06
x_346 + xt_346 >= 171.06
y_346 - yt_346 <= 129.125
y_346 + yt_346 >= 129.125
1 y_347 + -1 x_347  >= -43.6508
1 y_347 + -1 x_347  >= -43.522
1 y_347 + 1 x_347  - w_l_347 >= 302.656
1 y_347 + 1 x_347  - w_l_347 >= 302.619
1 y_347 + 1 x_347  - w_l_347 >= 302.692
1 y_347 + 1 x_347  - w_l_347 >= 302.692
1 y_347 + -1 x_347  >= -42.7219
0 y_347 + 1 x_347  <= 172.378
0 y_347 + 1 x_347  <= 172.318
0 y_347 + 1 x_347  <= 172.318
0 y_347 + 1 x_347  <= 172.318
0 y_347 + 1 x_347  <= 172.318
1 y_347 + -1 x_347  >= -41.9218
x_347 - xt_347 <= 172.285
x_347 + xt_347 >= 172.285
y_347 - yt_347 <= 130.675
y_347 + yt_347 >= 130.675
x_353 - xt_353 <= 161.485
x_353 + xt_353 >= 161.485
y_353 - yt_353 <= 130.8
y_353 + yt_353 >= 130.8
x_354 - xt_354 <= 162.36
x_354 + xt_354 >= 162.36
y_354 - yt_354 <= 131.35
y_354 + yt_354 >= 131.35
x_355 - xt_355 <= 168.96
x_355 + xt_355 >= 168.96
y_355 - yt_355 <= 131.9
y_355 + yt_355 >= 131.9
1 y_356 + 0 x_356  + w_r_356 <= 132.02
1 y_356 + -0 x_356  + w_r_356 <= 131.96
x_356 - xt_356 <= 174.66
x_356 + xt_356 >= 174.66
y_356 - yt_356 <= 131.9
y_356 + yt_356 >= 131.9
x_364 - xt_364 <= 163.01
x_364 + xt_364 >= 163.01
y_364 - yt_364 <= 125.1
y_364 + yt_364 >= 125.1
x_365 - xt_365 <= 165.76
x_365 + xt_365 >= 165.76
y_365 - yt_365 <= 125.1
y_365 + yt_365 >= 125.1
1 y_366 + -1 x_366  <= -37.8415
1 y_366 + -1 x_366  <= -37.8415
1 y_366 + -1 x_366  <= -41.2915
1 y_366 + -1 x_366  <= -41.2915
1 y_366 + -1 x_366  <= -41.2915
1 y_366 + -1 x_366  >= -41.9285
1 y_366 + -1 x_366  >= -41.0785
1 y_366 + -1 x_366  >= -41.0785
1 y_366 + -1 x_366  <= -40.4915
1 y_366 + -1 x_366  <= -40.4915
1 y_366 + -1 x_366  <= -40.4915
1 y_366 + -1 x_366  <= -39.6915
1 y_366 + -1 x_366  <= -39.6915
1 y_366 + -1 x_366  >= -43.5285
1 y_366 + -1 x_366  >= -43.5285
1 y_366 + -1 x_366  >= -43.5285
1 y_366 + -1 x_366  >= -43.5285
1 y_366 + -1 x_366  <= -38.8915
1 y_366 + -1 x_366  <= -38.8915
1 y_366 + -1 x_366  <= -38.8915
1 y_366 + -1 x_366  <= -38.0915
1 y_366 + -1 x_366  <= -38.0915
1 y_366 + -1 x_366  <= -38.0915
1 y_366 + -1 x_366  <= -38.0915
1 y_366 + -1 x_366  <= -38.6415
1 y_366 + -1 x_366  <= -38.6415
1 y_366 + -1 x_366  <= -38.6415
1 y_366 + -1 x_366  <= -38.6415
1 y_366 + -1 x_366  >= -42.6285
1 y_366 + -1 x_366  >= -42.6285
x_366 - xt_366 <= 170.66
x_366 + xt_366 >= 170.66
y_366 - yt_366 <= 129.1
y_366 + yt_366 >= 129.1
1 y_367 + 1 x_367  <= 308.04
1 y_367 + -1 x_367  <= -41.2314
1 y_367 + -0 x_367  <= 133.097
1 y_367 + -1 x_367  >= -41.9886
1 y_367 + -1 x_367  >= -41.8596
x_367 - xt_367 <= 174.66
x_367 + xt_367 >= 174.66
y_367 - yt_367 <= 133.075
y_367 + yt_367 >= 133.075
1 y_368 + 1 x_368  + w_r_368 <= 307.752
1 y_368 + -1 x_368  <= -41.1692
1 y_368 + -1 x_368  <= -41.2915
1 y_368 + -1 x_368  <= -41.2915
1 y_368 + -1 x_368  <= -41.2915
1 y_368 + -0 x_368  <= 132.92
1 y_368 + -1 x_368  >= -42.0508
1 y_368 + -1 x_368  >= -41.9285
0 y_368 + 1 x_368  <= 174.563
x_368 - xt_368 <= 174.485
x_368 + xt_368 >= 174.485
y_368 - yt_368 <= 132.875
y_368 + yt_368 >= 132.875
 + 7.874 w_r_6 + 7.874 w_r_7 + 7.874 w_l_7 <= 14.3279
 + 7.874 w_r_22 + 7.874 w_l_23 + 7.874 w_l_24 <= 14.3279
 + 7.874 w_r_38 + 7.874 w_l_39 <= 14.3279
 + 7.874 w_l_55 <= 14.3279
 + 7.874 w_r_68 <= 14.3279
 + 7.874 w_r_95 + 7.874 w_l_95 <= 15.3279
 + 7.874 w_l_128 <= 13.3279
 + 7.874 w_l_142 <= 14.3279
 + 7.874 w_l_155 <= 14.3279
 + 7.874 w_r_180 + 7.874 w_r_181 <= 16.3279
 + 7.874 w_r_188 + 7.874 w_l_189 <= 13.3279
 + 7.874 w_l_198 + 7.874 w_l_199 <= 14.3279
 + 7.874 w_r_213 <= 14.3279
 + 7.874 w_r_220 + 7.874 w_l_223 <= 14.3279
 + 7.874 w_l_237 + 7.874 w_r_239 <= 14.3279
 + 7.874 w_r_253 <= 12.3279
 + 7.874 w_l_265 <= 13.3279
 + 7.874 w_r_285 + 7.874 w_r_287 <= 14.3279
 + 7.874 w_l_303 <= 12.3279
 + 7.874 w_r_314 <= 13.3279
 + 7.874 w_l_329 <= 14.3279
 + 7.874 w_r_344 + 7.874 w_l_344 + 7.874 w_l_346 + 7.874 w_l_347 <= 13.3279
 + 7.874 w_r_356 <= 14.3279
 + 7.874 w_r_368 <= 13.3279

Bounds
x_4 >= 0
y_4 >= 0
x_5 >= 0
y_5 >= 0
x_6 >= 0
y_6 >= 0
w_r_6 >= 0
x_7 >= 0
y_7 >= 0
w_r_7 >= 0
w_r_7 >= 0
w_r_7 >= 0
w_r_7 >= 0
w_r_7 >= 0
w_l_7 >= 0
w_l_7 >= 0
x_21 >= 0
y_21 >= 0
x_22 >= 0
y_22 >= 0
w_r_22 >= 0
w_r_22 >= 0
x_23 >= 0
y_23 >= 0
w_l_23 >= 0
x_24 >= 0
y_24 >= 0
w_l_24 >= 0
w_l_24 >= 0
x_36 >= 0
y_36 >= 0
x_37 >= 0
y_37 >= 0
x_38 >= 0
y_38 >= 0
w_r_38 >= 0
x_39 >= 0
y_39 >= 0
w_l_39 >= 0
x_52 >= 0
y_52 >= 0
x_53 >= 0
y_53 >= 0
x_54 >= 0
y_54 >= 0
x_55 >= 0
y_55 >= 0
w_l_55 >= 0
w_l_55 >= 0
w_l_55 >= 0
x_65 >= 0
y_65 >= 0
x_66 >= 0
y_66 >= 0
x_67 >= 0
y_67 >= 0
x_68 >= 0
y_68 >= 0
w_r_68 >= 0
x_73 >= 0
y_73 >= 0
x_74 >= 0
y_74 >= 0
x_75 >= 0
y_75 >= 0
x_76 >= 0
y_76 >= 0
x_94 >= 0
y_94 >= 0
x_95 >= 0
y_95 >= 0
w_l_95 >= 0
w_l_95 >= 0
w_r_95 >= 0
w_l_95 >= 0
x_96 >= 0
y_96 >= 0
x_99 >= 0
y_99 >= 0
x_100 >= 0
y_100 >= 0
x_101 >= 0
y_101 >= 0
x_102 >= 0
y_102 >= 0
x_103 >= 0
y_103 >= 0
x_126 >= 0
y_126 >= 0
x_127 >= 0
y_127 >= 0
x_128 >= 0
y_128 >= 0
w_l_128 >= 0
w_l_128 >= 0
x_129 >= 0
y_129 >= 0
x_130 >= 0
y_130 >= 0
x_139 >= 0
y_139 >= 0
x_140 >= 0
y_140 >= 0
x_141 >= 0
y_141 >= 0
x_142 >= 0
y_142 >= 0
w_l_142 >= 0
x_152 >= 0
y_152 >= 0
x_153 >= 0
y_153 >= 0
x_154 >= 0
y_154 >= 0
x_155 >= 0
y_155 >= 0
w_l_155 >= 0
x_160 >= 0
y_160 >= 0
x_161 >= 0
y_161 >= 0
x_180 >= 0
y_180 >= 0
w_r_180 >= 0
w_r_180 >= 0
w_r_180 >= 0
x_181 >= 0
y_181 >= 0
w_r_181 >= 0
w_r_181 >= 0
w_r_181 >= 0
w_r_181 >= 0
w_r_181 >= 0
x_185 >= 0
y_185 >= 0
x_186 >= 0
y_186 >= 0
x_187 >= 0
y_187 >= 0
x_188 >= 0
y_188 >= 0
w_r_188 >= 0
x_189 >= 0
y_189 >= 0
w_l_189 >= 0
x_197 >= 0
y_197 >= 0
x_198 >= 0
y_198 >= 0
w_l_198 >= 0
x_199 >= 0
y_199 >= 0
w_l_199 >= 0
x_200 >= 0
y_200 >= 0
x_210 >= 0
y_210 >= 0
x_211 >= 0
y_211 >= 0
x_212 >= 0
y_212 >= 0
x_213 >= 0
y_213 >= 0
w_r_213 >= 0
x_220 >= 0
y_220 >= 0
w_r_220 >= 0
x_221 >= 0
y_221 >= 0
x_222 >= 0
y_222 >= 0
x_223 >= 0
y_223 >= 0
w_l_223 >= 0
w_l_223 >= 0
x_236 >= 0
y_236 >= 0
x_237 >= 0
y_237 >= 0
w_l_237 >= 0
x_238 >= 0
y_238 >= 0
x_239 >= 0
y_239 >= 0
w_r_239 >= 0
x_248 >= 0
y_248 >= 0
x_249 >= 0
y_249 >= 0
x_250 >= 0
y_250 >= 0
x_251 >= 0
y_251 >= 0
x_252 >= 0
y_252 >= 0
x_253 >= 0
y_253 >= 0
w_r_253 >= 0
x_263 >= 0
y_263 >= 0
x_264 >= 0
y_264 >= 0
x_265 >= 0
y_265 >= 0
w_l_265 >= 0
x_266 >= 0
y_266 >= 0
x_267 >= 0
y_267 >= 0
x_284 >= 0
y_284 >= 0
x_285 >= 0
y_285 >= 0
w_r_285 >= 0
x_286 >= 0
y_286 >= 0
x_287 >= 0
y_287 >= 0
w_r_287 >= 0
x_301 >= 0
y_301 >= 0
x_302 >= 0
y_302 >= 0
x_303 >= 0
y_303 >= 0
w_l_303 >= 0
w_l_303 >= 0
w_l_303 >= 0
x_304 >= 0
y_304 >= 0
x_305 >= 0
y_305 >= 0
x_306 >= 0
y_306 >= 0
x_310 >= 0
y_310 >= 0
x_311 >= 0
y_311 >= 0
x_312 >= 0
y_312 >= 0
x_313 >= 0
y_313 >= 0
x_314 >= 0
y_314 >= 0
w_r_314 >= 0
x_327 >= 0
y_327 >= 0
x_328 >= 0
y_328 >= 0
x_329 >= 0
y_329 >= 0
w_l_329 >= 0
x_330 >= 0
y_330 >= 0
x_343 >= 0
y_343 >= 0
x_344 >= 0
y_344 >= 0
w_r_344 >= 0
w_r_344 >= 0
w_l_344 >= 0
w_r_344 >= 0
x_345 >= 0
y_345 >= 0
x_346 >= 0
y_346 >= 0
w_l_346 >= 0
w_l_346 >= 0
w_l_346 >= 0
w_l_346 >= 0
x_347 >= 0
y_347 >= 0
w_l_347 >= 0
w_l_347 >= 0
w_l_347 >= 0
w_l_347 >= 0
x_353 >= 0
y_353 >= 0
x_354 >= 0
y_354 >= 0
x_355 >= 0
y_355 >= 0
x_356 >= 0
y_356 >= 0
w_r_356 >= 0
w_r_356 >= 0
x_364 >= 0
y_364 >= 0
x_365 >= 0
y_365 >= 0
x_366 >= 0
y_366 >= 0
x_367 >= 0
y_367 >= 0
x_368 >= 0
y_368 >= 0
w_r_368 >= 0
End
